sat
(
  (define-fun ProcProv2 () Int
    2)
  (define-fun C1_VM3 () Int
    0)
  (define-fun C1_VM4 () Int
    0)
  (define-fun C5_VM4 () Int
    0)
  (define-fun StorageProv2 () Int
    2000)
  (define-fun StorageProv5 () Int
    2000)
  (define-fun C2_VM1 () Int
    0)
  (define-fun PriceProv4 () Int
    210)
  (define-fun C1_VM5 () Int
    1)
  (define-fun C5_VM5 () Int
    0)
  (define-fun C3_VM5 () Int
    0)
  (define-fun VM4Type () Int
    341)
  (define-fun C3_VM3 () Int
    0)
  (define-fun VM3Type () Int
    433)
  (define-fun VM2Type () Int
    433)
  (define-fun VM1Type () Int
    341)
  (define-fun StorageProv3 () Int
    2000)
  (define-fun StorageProv4 () Int
    2000)
  (define-fun ProcProv4 () Int
    4)
  (define-fun MemProv2 () Int
    3750)
  (define-fun C4_VM3 () Int
    0)
  (define-fun ProcProv3 () Int
    2)
  (define-fun C1_VM2 () Int
    0)
  (define-fun PriceProv3 () Int
    116)
  (define-fun PriceProv2 () Int
    116)
  (define-fun C4_VM1 () Int
    0)
  (define-fun C4_VM4 () Int
    0)
  (define-fun C4_VM5 () Int
    0)
  (define-fun PriceProv5 () Int
    210)
  (define-fun MemProv3 () Int
    3750)
  (define-fun C4_VM2 () Int
    1)
  (define-fun MemProv1 () Int
    7500)
  (define-fun C5_VM2 () Int
    0)
  (define-fun ProcProv5 () Int
    4)
  (define-fun MemProv5 () Int
    7500)
  (define-fun C3_VM2 () Int
    0)
  (define-fun C2_VM5 () Int
    0)
  (define-fun C2_VM2 () Int
    0)
  (define-fun VM5Type () Int
    341)
  (define-fun C3_VM4 () Int
    1)
  (define-fun C3_VM1 () Int
    0)
  (define-fun MemProv4 () Int
    7500)
  (define-fun StorageProv1 () Int
    2000)
  (define-fun C5_VM3 () Int
    0)
  (define-fun C2_VM3 () Int
    1)
  (define-fun PriceProv1 () Int
    210)
  (define-fun C2_VM4 () Int
    0)
  (define-fun ProcProv1 () Int
    4)
  (define-fun C5_VM1 () Int
    1)
  (define-fun C1_VM1 () Int
    0)
)
(objectives
 ( 17)
 ((+ 0 PriceProv1 PriceProv2 PriceProv3 PriceProv4 PriceProv5) 862)
)
(:added-eqs                   1126963
 :arith-eq-adapter            383616
 :arith-bound-propagations-lp 1161
 :arith-conflicts             55
 :arith-diseq                 823322
 :arith-fixed-eqs             8241
 :arith-lower                 1249446
 :arith-make-feasible         239293
 :arith-max-columns           553
 :arith-max-rows              17
 :arith-upper                 401745
 :binary-propagations         2595202
 :bv-bit2core                 40259
 :bv-dynamic-diseqs           1211911
 :bv->core-eq                 782
 :conflicts                   5343
 :decisions                   819541
 :del-clause                  2127134
 :final-checks                88
 :max-memory                  82.76
 :maxsat-cores                9
 :memory                      80.56
 :minimized-lits              7561
 :mk-bool-var                 752849
 :mk-clause                   2128814
 :mk-clause-binary            12190
 :num-allocs                  12197693730.00
 :num-checks                  114
 :pb-conflicts                24
 :pb-predicates               4
 :pb-propagations             423
 :pb-resolves                 24
 :propagations                3802846
 :restarts                    29
 :rlimit-count                42612516
 :solve-eqs-elim-vars         2
 :solve-eqs-steps             16
 :time                        5.89
 :total-time                  5.90)
